/* Objective function */
min: +C1 +C2 +C3 +C4 +C5 +C6 +C7 +C8 +C9 +C10 +C11 +C12 +C13 +C14 +C15 +C16 +C17 +C18 +C19 +C20 +C21 +C22
 +C23 +C24 +C25 +C26 +C27 +C28 +C29 +C30 +C31 +C32 +C33 +C34 +C35 +C36 +C37 +C38 +C39 +C40 +C41 +C42
 +C43 +C44 +C45 +C46 +C47 +C48 +C49 +C50 +C51 +C52 +C53 +C54 +C55 +C56 +C57 +C58 +C59 +C60 +C61 +C62
 +C63 +C64 +C65 +C66 +C67 +C68 +C69 +C70 +C71 +C72 +C73 +C74 +C75 +C76 +C77 +C78 +C79 +C80 +C81 +C82
 +C83 +C84 +C85 +C86 +C87 +C88 +C89 +C90 +C91 +C92 +C93 +C94 +C95 +C96 +C97 +C98 +C99 +C100 +C101 +C102
 +C103 +C104 +C105 +C106 +C107 +C108 +C109 +C110 +C111 +C112 +C113 +C114 +C115 +C116 +C117 +C118 +C119
 +C120 +C121 +C122 +C123 +C124 +C125 +C126 +C127 +C128 +C129 +C130 +C131 +C132 +C133 +C134 +C135 +C136
 +C137 +C138 +C139 +C140 +C141 +C142 +C143 +C144 +C145 +C146 +C147 +C148 +C149 +C150 +C151 +C152 +C153
 +C154 +C155 +C156 +C157 +C158 +C159 +C160 +C161 +C162 +C163 +C164 +C165 +C166 +C167 +C168 +C169 +C170
 +C171 +C172 +C173 +C174 +C175 +C176 +C177 +C178 +C179 +C180 +C181 +C182 +C183 +C184 +C185 +C186 +C187
 +C188 +C189 +C190 +C191 +C192 +C193 +C194 +C195 +C196 +C197 +C198 +C199 +C200 +C201 +C202 +C203 +C204
 +C205 +C206 +C207 +C208 +C209 +C210 +C211 +C212 +C213 +C214 +C215 +C216 +C217 +C218 +C219 +C220 +C221
 +C222 +C223 +C224 +C225 +C226 +C227 +C228 +C229 +C230 +C231 +C232 +C233 +C234 +C235 +C236 +C237 +C238
 +C239 +C240 +C241 +C242 +C243 +C244 +C245 +C246 +C247 +C248 +C249 +C250 +C251 +C252 +C253 +C254 +C255
 +C256 +C257 +C258 +C259 +C260 +C261 +C262 +C263 +C264 +C265 +C266 +C267 +C268 +C269 +C270 +C271 +C272
 +C273 +C274 +C275 +C276 +C277 +C278 +C279 +C280 +C281 +C282 +C283 +C284 +C285 +C286 +C287 +C288 +C289
 +C290 +C291 +C292 +C293 +C294 +C295 +C296 +C297 +C298 +C299 +C300 +C301 +C302 +C303 +C304 +C305 +C306
 +C307 +C308 +C309 +C310 +C311 +C312 +C313 +C314 +C315 +C316 +C317 +C318 +C319 +C320 +C321 +C322 +C323
 +C324 +C325 +C326 +C327 +C328 +C329 +C330 +C331 +C332 +C333 +C334 +C335 +C336 +C337 +C338 +C339 +C340
 +C341 +C342 +C343 +C344 +C345 +C346 +C347 +C348 +C349 +C350 +C351 +C352 +C353 +C354 +C355 +C356 +C357
 +C358 +C359 +C360 +C361 +C362 +C363 +C364 +C365 +C366 +C367 +C368 +C369 +C370 +C371 +C372 +C373 +C374
 +C375 +C376 +C377 +C378 +C379 +C380 +C381 +C382 +C383 +C384 +C385 +C386 +C387 +C388 +C389 +C390 +C391
 +C392 +C393 +C394 +C395 +C396 +C397 +C398 +C399 +C400 +C401 +C402 +C403 +C404 +C405 +C406 +C407 +C408
 +C409 +C410 +C411 +C412 +C413 +C414 +C415 +C416 +C417 +C418 +C419 +C420 +C421 +C422 +C423 +C424 +C425
 +C426 +C427 +C428 +C429 +C430 +C431 +C432 +C433 +C434 +C435 +C436 +C437 +C438 +C439 +C440 +C441 +C442
 +C443 +C444 +C445 +C446 +C447 +C448 +C449 +C450 +C451 +C452 +C453 +C454 +C455 +C456 +C457 +C458 +C459
 +C460 +C461 +C462 +C463 +C464 +C465;

/* Constraints */
R1: +100 C451 >= 21.25;
R2: +100 C452 >= 21.25;
R3: +100 C453 >= 18.75;
R4: +100 C454 >= 1.25;
R5: +100 C455 >= 16.25;
R6: +100 C456 >= 40;
R7: +100 C457 >= 8.75;
R8: +100 C458 >= 18.75;
R9: +100 C459 >= 142.5;
R10: +100 C460 >= 13.75;
R11: +100 C461 >= 57.5;
R12: +100 C462 >= 1.25;
R13: +100 C463 >= 13.75;
R14: +100 C464 >= 8.75;
R15: +100 C465 >= 116.25;
+C1 +C2 -C451 = 0;
+C1 +C12 +C17 -C451 = 0;
-C2 +C12 +C14 -C23 = 0;
+C17 +C19 +C20 -C24 -C29 = 0;
-C14 -C19 +C23 +C24 +C25 -C30 = 0;
-C20 -C25 +C29 +C30 = 0;
+C31 +C32 -C452 = 0;
-C31 +C37 +C38 -C47 = 0;
+C32 +C37 +C53 -C452 = 0;
-C38 +C47 +C49 +C50 -C54 -C59 = 0;
-C49 +C53 +C54 +C55 -C60 = 0;
-C50 -C55 +C59 +C60 = 0;
+C61 +C62 -C453 = 0;
-C61 +C67 +C68 -C72 = 0;
-C62 -C67 +C72 +C74 -C83 = 0;
+C68 +C84 +C89 -C453 = 0;
-C74 +C83 +C84 +C85 -C90 = 0;
-C85 +C89 +C90 = 0;
+C91 +C92 -C454 = 0;
-C91 +C97 +C98 -C102 -C107 = 0;
-C92 -C97 +C102 +C104 = 0;
-C98 +C107 +C109 +C110 -C119 = 0;
+C104 +C109 +C120 -C454 = 0;
-C110 +C119 +C120 = 0;
+C121 +C122 -C455 = 0;
-C121 +C127 +C128 -C132 -C137 = 0;
-C122 -C127 +C132 +C134 -C143 = 0;
-C128 +C137 +C139 +C140 -C144 = 0;
-C134 -C139 +C143 +C144 +C145 = 0;
+C140 +C145 -C455 = 0;
+C152 -C156 = 0;
+C156 +C157 +C158 -C456 = 0;
+C152 +C157 +C173 -C456 = 0;
-C158 +C169 +C170 -C174 -C179 = 0;
-C169 +C173 +C174 +C175 -C180 = 0;
-C170 -C175 +C179 +C180 = 0;
+C182 -C186 -C191 = 0;
+C186 +C187 +C188 -C457 = 0;
-C182 -C187 +C191 +C194 -C203 = 0;
+C188 +C204 +C209 -C457 = 0;
-C194 +C203 +C204 +C205 -C210 = 0;
-C205 +C209 +C210 = 0;
+C212 -C216 -C221 = 0;
+C216 +C217 +C218 -C458 = 0;
-C212 -C217 +C221 +C224 = 0;
-C218 +C229 +C230 -C239 = 0;
+C224 +C229 +C240 -C458 = 0;
-C230 +C239 +C240 = 0;
+C242 -C246 -C251 = 0;
+C246 +C247 +C248 -C459 = 0;
-C242 -C247 +C251 +C254 -C263 = 0;
-C248 +C259 +C260 -C264 = 0;
-C254 -C259 +C263 +C264 +C265 = 0;
+C260 +C265 -C459 = 0;
+C271 -C276 -C281 = 0;
-C271 +C276 +C278 -C282 = 0;
+C281 +C282 +C284 -C460 = 0;
+C278 +C294 +C299 -C460 = 0;
-C284 +C294 +C295 -C300 = 0;
-C295 +C299 +C300 = 0;
+C301 -C306 -C311 = 0;
-C301 +C306 +C308 -C312 -C317 = 0;
+C311 +C312 +C314 -C461 = 0;
-C308 +C317 +C319 +C320 -C329 = 0;
+C314 +C319 +C330 -C461 = 0;
-C320 +C329 +C330 = 0;
+C331 -C336 -C341 = 0;
-C331 +C336 +C338 -C342 -C347 = 0;
+C341 +C342 +C344 -C462 = 0;
-C338 +C347 +C349 +C350 -C354 = 0;
-C344 -C349 +C354 +C355 = 0;
+C350 +C355 -C462 = 0;
+C361 +C362 -C366 -C371 = 0;
-C361 +C366 +C367 -C372 -C377 = 0;
-C362 -C367 +C371 +C372 +C374 = 0;
+C377 +C379 +C380 -C463 = 0;
+C374 +C379 +C390 -C463 = 0;
-C380 +C390 = 0;
+C391 +C392 -C396 -C401 = 0;
-C391 +C396 +C397 -C402 -C407 = 0;
-C392 -C397 +C401 +C402 +C404 -C413 = 0;
+C407 +C409 +C410 -C464 = 0;
-C404 -C409 +C413 +C415 = 0;
+C410 +C415 -C464 = 0;
+C421 +C422 -C426 -C431 = 0;
-C421 +C426 +C427 +C428 -C432 -C437 = 0;
-C422 -C427 +C431 +C432 -C443 = 0;
-C428 +C437 +C440 -C444 = 0;
+C443 +C444 +C445 -C465 = 0;
+C440 +C445 -C465 = 0;
+C1 +C6 +C31 +C36 +C61 +C66 +C91 +C96 +C121 +C126 +C151 +C156 +C181 +C186 +C211 +C216 +C241 +C246 +C271
 +C276 +C301 +C306 +C331 +C336 +C361 +C366 +C391 +C396 +C421 +C426 <= 80;
+C2 +C11 +C32 +C41 +C62 +C71 +C92 +C101 +C122 +C131 +C152 +C161 +C182 +C191 +C212 +C221 +C242 +C251 +C272
 +C281 +C302 +C311 +C332 +C341 +C362 +C371 +C392 +C401 +C422 +C431 <= 80;
+C3 +C16 +C33 +C46 +C63 +C76 +C93 +C106 +C123 +C136 +C153 +C166 +C183 +C196 +C213 +C226 +C243 +C256 +C273
 +C286 +C303 +C316 +C333 +C346 +C363 +C376 +C393 +C406 +C423 +C436 <= 0;
+C4 +C21 +C34 +C51 +C64 +C81 +C94 +C111 +C124 +C141 +C154 +C171 +C184 +C201 +C214 +C231 +C244 +C261 +C274
 +C291 +C304 +C321 +C334 +C351 +C364 +C381 +C394 +C411 +C424 +C441 <= 0;
+C5 +C26 +C35 +C56 +C65 +C86 +C95 +C116 +C125 +C146 +C155 +C176 +C185 +C206 +C215 +C236 +C245 +C266 +C275
 +C296 +C305 +C326 +C335 +C356 +C365 +C386 +C395 +C416 +C425 +C446 <= 0;
+C7 +C12 +C37 +C42 +C67 +C72 +C97 +C102 +C127 +C132 +C157 +C162 +C187 +C192 +C217 +C222 +C247 +C252 +C277
 +C282 +C307 +C312 +C337 +C342 +C367 +C372 +C397 +C402 +C427 +C432 <= 80;
+C8 +C17 +C38 +C47 +C68 +C77 +C98 +C107 +C128 +C137 +C158 +C167 +C188 +C197 +C218 +C227 +C248 +C257 +C278
 +C287 +C308 +C317 +C338 +C347 +C368 +C377 +C398 +C407 +C428 +C437 <= 80;
+C9 +C22 +C39 +C52 +C69 +C82 +C99 +C112 +C129 +C142 +C159 +C172 +C189 +C202 +C219 +C232 +C249 +C262 +C279
 +C292 +C309 +C322 +C339 +C352 +C369 +C382 +C399 +C412 +C429 +C442 <= 0;
+C10 +C27 +C40 +C57 +C70 +C87 +C100 +C117 +C130 +C147 +C160 +C177 +C190 +C207 +C220 +C237 +C250 +C267
 +C280 +C297 +C310 +C327 +C340 +C357 +C370 +C387 +C400 +C417 +C430 +C447 <= 0;
+C13 +C18 +C43 +C48 +C73 +C78 +C103 +C108 +C133 +C138 +C163 +C168 +C193 +C198 +C223 +C228 +C253 +C258
 +C283 +C288 +C313 +C318 +C343 +C348 +C373 +C378 +C403 +C408 +C433 +C438 <= 0;
+C14 +C23 +C44 +C53 +C74 +C83 +C104 +C113 +C134 +C143 +C164 +C173 +C194 +C203 +C224 +C233 +C254 +C263
 +C284 +C293 +C314 +C323 +C344 +C353 +C374 +C383 +C404 +C413 +C434 +C443 <= 80;
+C15 +C28 +C45 +C58 +C75 +C88 +C105 +C118 +C135 +C148 +C165 +C178 +C195 +C208 +C225 +C238 +C255 +C268
 +C285 +C298 +C315 +C328 +C345 +C358 +C375 +C388 +C405 +C418 +C435 +C448 <= 0;
+C19 +C24 +C49 +C54 +C79 +C84 +C109 +C114 +C139 +C144 +C169 +C174 +C199 +C204 +C229 +C234 +C259 +C264
 +C289 +C294 +C319 +C324 +C349 +C354 +C379 +C384 +C409 +C414 +C439 +C444 <= 80;
+C20 +C29 +C50 +C59 +C80 +C89 +C110 +C119 +C140 +C149 +C170 +C179 +C200 +C209 +C230 +C239 +C260 +C269
 +C290 +C299 +C320 +C329 +C350 +C359 +C380 +C389 +C410 +C419 +C440 +C449 <= 80;
+C25 +C30 +C55 +C60 +C85 +C90 +C115 +C120 +C145 +C150 +C175 +C180 +C205 +C210 +C235 +C240 +C265 +C270
 +C295 +C300 +C325 +C330 +C355 +C360 +C385 +C390 +C415 +C420 +C445 +C450 <= 80;

/* Integer definitions */
int C1,C2,C3,C4,C5,C6,C7,C8,C9,C10,C11,C12,C13,C14,C15,C16,C17,C18,C19,C20,C21,C22,C23,C24,C25,C26,C27,C28,C29,C30,C31,C32,C33,C34,C35,C36,C37,C38,C39,C40,C41,C42,C43,C44,C45,C46,C47,C48,C49,C50,C51,C52,C53,C54,C55,C56,C57,C58,C59,C60,C61,C62,C63,C64,C65,C66,C67,C68,C69,C70,C71,C72,C73,C74,C75,C76,C77,C78,C79,C80,C81,C82,C83,C84,C85,C86,C87,C88,C89,C90,C91,C92,C93,C94,C95,C96,C97,C98,C99,C100,C101,C102,C103,C104,C105,C106,C107,C108,C109,C110,C111,C112,C113,C114,C115,C116,C117,C118,C119,C120,C121,C122,C123,C124,C125,C126,C127,C128,C129,C130,C131,C132,C133,C134,C135,C136,C137,C138,C139,C140,C141,C142,C143,C144,C145,C146,C147,C148,C149,C150,C151,C152,C153,C154,C155,C156,C157,C158,C159,C160,C161,C162,C163,C164,C165,C166,C167,C168,C169,C170,C171,C172,C173,C174,C175,C176,C177,C178,C179,C180,C181,C182,C183,C184,C185,C186,C187,C188,C189,C190,C191,C192,C193,C194,C195,C196,C197,C198,C199,C200,C201,C202,C203,C204,C205,C206,C207,C208,C209,C210,C211,C212,C213,C214,C215,C216,C217,C218,C219,C220,C221,C222,C223,C224,C225,C226,C227,C228,C229,C230,C231,C232,C233,C234,C235,C236,C237,C238,C239,C240,C241,C242,C243,C244,C245,C246,C247,C248,C249,C250,C251,C252,C253,C254,C255,C256,C257,C258,C259,C260,C261,C262,C263,C264,C265,C266,C267,C268,C269,C270,C271,C272,C273,C274,C275,C276,C277,C278,C279,C280,C281,C282,C283,C284,C285,C286,C287,C288,C289,C290,C291,C292,C293,C294,C295,C296,C297,C298,C299,C300,C301,C302,C303,C304,C305,C306,C307,C308,C309,C310,C311,C312,C313,C314,C315,C316,C317,C318,C319,C320,C321,C322,C323,C324,C325,C326,C327,C328,C329,C330,C331,C332,C333,C334,C335,C336,C337,C338,C339,C340,C341,C342,C343,C344,C345,C346,C347,C348,C349,C350,C351,C352,C353,C354,C355,C356,C357,C358,C359,C360,C361,C362,C363,C364,C365,C366,C367,C368,C369,C370,C371,C372,C373,C374,C375,C376,C377,C378,C379,C380,C381,C382,C383,C384,C385,C386,C387,C388,C389,C390,C391,C392,C393,C394,C395,C396,C397,C398,C399,C400,C401,C402,C403,C404,C405,C406,C407,C408,C409,C410,C411,C412,C413,C414,C415,C416,C417,C418,C419,C420,C421,C422,C423,C424,C425,C426,C427,C428,C429,C430,C431,C432,C433,C434,C435,C436,C437,C438,C439,C440,C441,C442,C443,C444,C445,C446,C447,C448,C449,C450,C451,C452,C453,C454,C455,C456,C457,C458,C459,C460,C461,C462,C463,C464,C465;
